(declare-fun var0 () String)
(assert (RegexIn var0 (RegexConcat (RegexStar (RegexUnion (Str2Reg "[") (Str2Reg "\\"))) (RegexConcat (RegexStar (RegexStar (Str2Reg "@@"))) (RegexConcat (RegexUnion (RegexUnion (Str2Reg "==") (Str2Reg ">>")) (RegexPlus (Str2Reg "??"))) (RegexConcat (RegexUnion (RegexStar (Str2Reg ":")) (RegexUnion (Str2Reg ";") (Str2Reg "<<<"))) (RegexConcat (RegexUnion (RegexUnion (Str2Reg "-") (Str2Reg ".")) (RegexPlus (Str2Reg "///"))) (RegexConcat (RegexStar (RegexPlus (Str2Reg ",,"))) (RegexConcat (RegexStar (RegexPlus (Str2Reg "+"))) (RegexConcat (RegexPlus (RegexPlus (Str2Reg "*"))) (RegexConcat (RegexStar (RegexPlus (Str2Reg ")))"))) (RegexConcat (RegexPlus (RegexPlus (Str2Reg "("))) (RegexConcat (RegexUnion (RegexStar (Str2Reg "%")) (RegexUnion (Str2Reg "&") (Str2Reg "'"))) (RegexConcat (RegexUnion (RegexPlus (Str2Reg "\"")) (RegexUnion (Str2Reg "##") (Str2Reg "$$$"))) (RegexConcat (RegexUnion (RegexUnion (Str2Reg "XXX") (Str2Reg "Y")) (RegexUnion (Str2Reg "Z") (Str2Reg "!!"))) (RegexConcat (RegexUnion (RegexUnion (Str2Reg "U") (Str2Reg "V")) (RegexPlus (Str2Reg "WWW"))) (RegexConcat (RegexStar (RegexUnion (Str2Reg "S") (Str2Reg "TTT"))) (RegexConcat (RegexUnion (RegexUnion (Str2Reg "PPP") (Str2Reg "QQQ")) (RegexStar (Str2Reg "R"))) (RegexConcat (RegexStar (RegexPlus (Str2Reg "OOO"))) (RegexConcat (RegexStar (RegexUnion (Str2Reg "M") (Str2Reg "NN"))) (RegexConcat (RegexPlus (RegexPlus (Str2Reg "LLL"))) (RegexConcat (RegexUnion (RegexUnion (Str2Reg "HHH") (Str2Reg "II")) (RegexUnion (Str2Reg "J") (Str2Reg "KK"))) (RegexConcat (RegexUnion (RegexStar (Str2Reg "EEE")) (RegexUnion (Str2Reg "FFF") (Str2Reg "GG"))) (RegexConcat (RegexUnion (RegexUnion (Str2Reg "AAA") (Str2Reg "BBB")) (RegexUnion (Str2Reg "CCC") (Str2Reg "DD"))) (RegexConcat (RegexStar (RegexPlus (Str2Reg "z"))) (RegexConcat (RegexUnion (RegexUnion (Str2Reg "www") (Str2Reg "xx")) (RegexPlus (Str2Reg "y"))) (RegexConcat (RegexStar (RegexPlus (Str2Reg "vv"))) (RegexConcat (RegexPlus (RegexPlus (Str2Reg "u"))) (RegexConcat (RegexStar (RegexStar (Str2Reg "t"))) (RegexConcat (RegexPlus (RegexUnion (Str2Reg "r") (Str2Reg "s"))) (RegexConcat (RegexPlus (RegexPlus (Str2Reg "q"))) (RegexConcat (RegexUnion (RegexPlus (Str2Reg "nn")) (RegexUnion (Str2Reg "ooo") (Str2Reg "p"))) (RegexConcat (RegexUnion (RegexUnion (Str2Reg "kkk") (Str2Reg "ll")) (RegexPlus (Str2Reg "mm"))) (RegexConcat (RegexUnion (RegexPlus (Str2Reg "iii")) (RegexStar (Str2Reg "jjj"))) (RegexConcat (RegexPlus (RegexStar (Str2Reg "h"))) (RegexConcat (RegexStar (RegexUnion (Str2Reg "fff") (Str2Reg "ggg"))) (RegexConcat (RegexUnion (RegexStar (Str2Reg "d")) (RegexStar (Str2Reg "ee"))) (RegexConcat (RegexUnion (RegexUnion (Str2Reg "99") (Str2Reg "a")) (RegexUnion (Str2Reg "bb") (Str2Reg "ccc"))) (RegexConcat (RegexPlus (RegexPlus (Str2Reg "8"))) (RegexConcat (RegexUnion (RegexUnion (Str2Reg "555") (Str2Reg "66")) (RegexStar (Str2Reg "7"))) (RegexConcat (RegexStar (RegexUnion (Str2Reg "333") (Str2Reg "444"))) (RegexConcat (RegexUnion (RegexStar (Str2Reg "11")) (RegexStar (Str2Reg "2"))) (RegexConcat (RegexPlus (RegexPlus (Str2Reg "000"))) (RegexConcat (RegexStar (RegexUnion (Str2Reg "}}") (Str2Reg "~~~"))) (RegexConcat (RegexUnion (RegexStar (Str2Reg "``")) (RegexUnion (Str2Reg "{") (Str2Reg "|"))) (RegexConcat (RegexUnion (RegexUnion (Str2Reg "\\") (Str2Reg "]]]")) (RegexUnion (Str2Reg "^") (Str2Reg "___"))) (RegexConcat (RegexUnion (RegexUnion (Str2Reg ">") (Str2Reg "??")) (RegexUnion (Str2Reg "@@@") (Str2Reg "[["))) (RegexConcat (RegexPlus (RegexPlus (Str2Reg "="))) (RegexConcat (RegexUnion (RegexUnion (Str2Reg "///") (Str2Reg "::")) (RegexUnion (Str2Reg ";;;") (Str2Reg "<<<"))) (RegexConcat (RegexStar (RegexUnion (Str2Reg "---") (Str2Reg "..."))) (RegexConcat (RegexUnion (RegexUnion (Str2Reg ")") (Str2Reg "***")) (RegexUnion (Str2Reg "+++") (Str2Reg ","))) (RegexConcat (RegexPlus (RegexUnion (Str2Reg "'''") (Str2Reg "((("))) (RegexConcat (RegexPlus (RegexPlus (Str2Reg "&"))) (RegexConcat (RegexPlus (RegexUnion (Str2Reg "$$") (Str2Reg "%%%"))) (RegexConcat (RegexStar (RegexStar (Str2Reg "###"))) (RegexConcat (RegexUnion (RegexPlus (Str2Reg "ZZZ")) (RegexUnion (Str2Reg "!!") (Str2Reg "\"\""))) (RegexConcat (RegexStar (RegexStar (Str2Reg "YY"))) (RegexConcat (RegexStar (RegexPlus (Str2Reg "X"))) (RegexConcat (RegexUnion (RegexUnion (Str2Reg "UUU") (Str2Reg "VV")) (RegexStar (Str2Reg "W"))) (RegexConcat (RegexUnion (RegexPlus (Str2Reg "SSS")) (RegexPlus (Str2Reg "TT"))) (RegexConcat (RegexStar (RegexUnion (Str2Reg "QQQ") (Str2Reg "R"))) (RegexConcat (RegexUnion (RegexPlus (Str2Reg "OO")) (RegexStar (Str2Reg "PPP"))) (RegexConcat (RegexUnion (RegexUnion (Str2Reg "L") (Str2Reg "MMM")) (RegexPlus (Str2Reg "NNN"))) (RegexConcat (RegexUnion (RegexUnion (Str2Reg "HH") (Str2Reg "III")) (RegexUnion (Str2Reg "JJ") (Str2Reg "KKK"))) (RegexConcat (RegexStar (RegexStar (Str2Reg "GG"))) (RegexConcat (RegexPlus (RegexUnion (Str2Reg "EE") (Str2Reg "FFF"))) (RegexConcat (RegexPlus (RegexStar (Str2Reg "DDD"))) (RegexConcat (RegexUnion (RegexStar (Str2Reg "AAA")) (RegexUnion (Str2Reg "B") (Str2Reg "CC"))) (RegexConcat (RegexPlus (RegexPlus (Str2Reg "zzz"))) (RegexConcat (RegexStar (RegexPlus (Str2Reg "yy"))) (RegexConcat (RegexUnion (RegexStar (Str2Reg "ww")) (RegexPlus (Str2Reg "xx"))) (RegexConcat (RegexUnion (RegexStar (Str2Reg "uu")) (RegexStar (Str2Reg "vv"))) (RegexConcat (RegexPlus (RegexStar (Str2Reg "tt"))) (RegexConcat (RegexUnion (RegexPlus (Str2Reg "rr")) (RegexStar (Str2Reg "ss"))) (RegexConcat (RegexUnion (RegexPlus (Str2Reg "ppp")) (RegexStar (Str2Reg "q"))) (RegexConcat (RegexPlus (RegexPlus (Str2Reg "ooo"))) (RegexConcat (RegexUnion (RegexStar (Str2Reg "mmm")) (RegexStar (Str2Reg "n"))) (RegexConcat (RegexUnion (RegexPlus (Str2Reg "k")) (RegexStar (Str2Reg "lll"))) (RegexConcat (RegexUnion (RegexPlus (Str2Reg "i")) (RegexStar (Str2Reg "jj"))) (RegexConcat (RegexPlus (RegexPlus (Str2Reg "h"))) (RegexConcat (RegexStar (RegexStar (Str2Reg "ggg"))) (RegexConcat (RegexUnion (RegexUnion (Str2Reg "ddd") (Str2Reg "e")) (RegexPlus (Str2Reg "fff"))) (RegexConcat (RegexUnion (RegexPlus (Str2Reg "b")) (RegexStar (Str2Reg "ccc"))) (RegexConcat (RegexUnion (RegexStar (Str2Reg "9")) (RegexPlus (Str2Reg "aaa"))) (RegexConcat (RegexStar (RegexUnion (Str2Reg "7") (Str2Reg "888"))) (RegexConcat (RegexStar (RegexUnion (Str2Reg "55") (Str2Reg "666"))) (RegexConcat (RegexUnion (RegexPlus (Str2Reg "2")) (RegexUnion (Str2Reg "3") (Str2Reg "4"))) (RegexUnion (RegexPlus (Str2Reg "00")) (RegexStar (Str2Reg "11"))))))))))))))))))))))))))))))))))))))))))))))))))))))))))))))))))))))))))))))))))))))))))
(assert (not (RegexIn var0 (RegexConcat (RegexStar (RegexPlus (Str2Reg "***"))) (RegexConcat (RegexPlus (RegexStar (Str2Reg ")"))) (RegexConcat (RegexUnion (RegexUnion (Str2Reg "%%") (Str2Reg "&&&")) (RegexUnion (Str2Reg "''") (Str2Reg "(("))) (RegexConcat (RegexUnion (RegexUnion (Str2Reg "\"\"\"") (Str2Reg "###")) (RegexStar (Str2Reg "$$"))) (RegexConcat (RegexPlus (RegexUnion (Str2Reg "ZZ") (Str2Reg "!!"))) (RegexConcat (RegexPlus (RegexUnion (Str2Reg "XXX") (Str2Reg "YY"))) (RegexConcat (RegexPlus (RegexUnion (Str2Reg "V") (Str2Reg "WW"))) (RegexConcat (RegexStar (RegexStar (Str2Reg "UUU"))) (RegexConcat (RegexStar (RegexPlus (Str2Reg "TT"))) (RegexConcat (RegexPlus (RegexPlus (Str2Reg "SSS"))) (RegexConcat (RegexUnion (RegexUnion (Str2Reg "PP") (Str2Reg "Q")) (RegexPlus (Str2Reg "R"))) (RegexConcat (RegexPlus (RegexStar (Str2Reg "OO"))) (RegexConcat (RegexUnion (RegexUnion (Str2Reg "LL") (Str2Reg "M")) (RegexPlus (Str2Reg "NN"))) (RegexConcat (RegexPlus (RegexStar (Str2Reg "KKK"))) (RegexConcat (RegexStar (RegexPlus (Str2Reg "JJ"))) (RegexConcat (RegexPlus (RegexPlus (Str2Reg "III"))) (RegexConcat (RegexUnion (RegexUnion (Str2Reg "F") (Str2Reg "GG")) (RegexPlus (Str2Reg "HHH"))) (RegexConcat (RegexStar (RegexUnion (Str2Reg "DD") (Str2Reg "EE"))) (RegexConcat (RegexStar (RegexPlus (Str2Reg "C"))) (RegexConcat (RegexStar (RegexUnion (Str2Reg "A") (Str2Reg "BB"))) (RegexConcat (RegexStar (RegexStar (Str2Reg "zzz"))) (RegexConcat (RegexStar (RegexPlus (Str2Reg "yyy"))) (RegexConcat (RegexPlus (RegexUnion (Str2Reg "w") (Str2Reg "x"))) (RegexConcat (RegexStar (RegexUnion (Str2Reg "u") (Str2Reg "v"))) (RegexConcat (RegexUnion (RegexPlus (Str2Reg "ss")) (RegexPlus (Str2Reg "ttt"))) (RegexConcat (RegexUnion (RegexStar (Str2Reg "qqq")) (RegexPlus (Str2Reg "rr"))) (RegexConcat (RegexPlus (RegexStar (Str2Reg "pp"))) (RegexConcat (RegexUnion (RegexUnion (Str2Reg "ll") (Str2Reg "mmm")) (RegexUnion (Str2Reg "n") (Str2Reg "o"))) (RegexConcat (RegexUnion (RegexStar (Str2Reg "jjj")) (RegexPlus (Str2Reg "kkk"))) (RegexConcat (RegexPlus (RegexPlus (Str2Reg "i"))) (RegexConcat (RegexPlus (RegexStar (Str2Reg "hh"))) (RegexConcat (RegexUnion (RegexUnion (Str2Reg "ee") (Str2Reg "f")) (RegexStar (Str2Reg "ggg"))) (RegexConcat (RegexPlus (RegexStar (Str2Reg "ddd"))) (RegexConcat (RegexUnion (RegexUnion (Str2Reg "99") (Str2Reg "aaa")) (RegexUnion (Str2Reg "bbb") (Str2Reg "cc"))) (RegexConcat (RegexPlus (RegexUnion (Str2Reg "777") (Str2Reg "8"))) (RegexConcat (RegexPlus (RegexPlus (Str2Reg "6"))) (RegexConcat (RegexUnion (RegexUnion (Str2Reg "2") (Str2Reg "33")) (RegexUnion (Str2Reg "44") (Str2Reg "555"))) (RegexConcat (RegexPlus (RegexPlus (Str2Reg "1"))) (RegexConcat (RegexPlus (RegexUnion (Str2Reg "~~") (Str2Reg "000"))) (RegexConcat (RegexPlus (RegexUnion (Str2Reg "|") (Str2Reg "}}"))) (RegexConcat (RegexUnion (RegexStar (Str2Reg "```")) (RegexPlus (Str2Reg "{{"))) (RegexConcat (RegexUnion (RegexPlus (Str2Reg "^^^")) (RegexPlus (Str2Reg "___"))) (RegexConcat (RegexUnion (RegexUnion (Str2Reg "[[") (Str2Reg "\\\\")) (RegexPlus (Str2Reg "]]"))) (RegexConcat (RegexUnion (RegexUnion (Str2Reg ">") (Str2Reg "??")) (RegexStar (Str2Reg "@@"))) (RegexConcat (RegexUnion (RegexUnion (Str2Reg ";") (Str2Reg "<<<")) (RegexPlus (Str2Reg "=="))) (RegexConcat (RegexUnion (RegexUnion (Str2Reg "--") (Str2Reg ".")) (RegexUnion (Str2Reg "///") (Str2Reg ":"))) (RegexConcat (RegexPlus (RegexPlus (Str2Reg ","))) (RegexConcat (RegexUnion (RegexUnion (Str2Reg "((") (Str2Reg "))")) (RegexUnion (Str2Reg "***") (Str2Reg "++"))) (RegexConcat (RegexStar (RegexStar (Str2Reg "'"))) (RegexConcat (RegexPlus (RegexStar (Str2Reg "&&&"))) (RegexConcat (RegexUnion (RegexPlus (Str2Reg "$$")) (RegexStar (Str2Reg "%"))) (RegexConcat (RegexUnion (RegexPlus (Str2Reg "!!")) (RegexUnion (Str2Reg "\"") (Str2Reg "##"))) (RegexConcat (RegexUnion (RegexPlus (Str2Reg "XX")) (RegexUnion (Str2Reg "YYY") (Str2Reg "ZZZ"))) (RegexConcat (RegexPlus (RegexUnion (Str2Reg "VVV") (Str2Reg "W"))) (RegexConcat (RegexStar (RegexStar (Str2Reg "U"))) (RegexConcat (RegexPlus (RegexUnion (Str2Reg "S") (Str2Reg "T"))) (RegexConcat (RegexStar (RegexStar (Str2Reg "RRR"))) (RegexConcat (RegexUnion (RegexUnion (Str2Reg "NNN") (Str2Reg "OO")) (RegexUnion (Str2Reg "P") (Str2Reg "QQ"))) (RegexConcat (RegexStar (RegexStar (Str2Reg "M"))) (RegexConcat (RegexPlus (RegexPlus (Str2Reg "LLL"))) (RegexConcat (RegexStar (RegexUnion (Str2Reg "JJ") (Str2Reg "KK"))) (RegexConcat (RegexStar (RegexUnion (Str2Reg "H") (Str2Reg "II"))) (RegexConcat (RegexUnion (RegexPlus (Str2Reg "FF")) (RegexPlus (Str2Reg "G"))) (RegexConcat (RegexPlus (RegexStar (Str2Reg "E"))) (RegexConcat (RegexPlus (RegexStar (Str2Reg "DDD"))) (RegexConcat (RegexUnion (RegexUnion (Str2Reg "AA") (Str2Reg "BB")) (RegexPlus (Str2Reg "C"))) (RegexConcat (RegexStar (RegexStar (Str2Reg "zzz"))) (RegexConcat (RegexPlus (RegexUnion (Str2Reg "x") (Str2Reg "y"))) (RegexConcat (RegexPlus (RegexPlus (Str2Reg "ww"))) (RegexConcat (RegexStar (RegexStar (Str2Reg "vvv"))) (RegexConcat (RegexStar (RegexPlus (Str2Reg "u"))) (RegexConcat (RegexPlus (RegexUnion (Str2Reg "sss") (Str2Reg "ttt"))) (RegexConcat (RegexStar (RegexUnion (Str2Reg "q") (Str2Reg "r"))) (RegexConcat (RegexUnion (RegexStar (Str2Reg "nnn")) (RegexUnion (Str2Reg "oo") (Str2Reg "pp"))) (RegexConcat (RegexUnion (RegexUnion (Str2Reg "kkk") (Str2Reg "l")) (RegexPlus (Str2Reg "mmm"))) (RegexConcat (RegexUnion (RegexUnion (Str2Reg "hhh") (Str2Reg "i")) (RegexStar (Str2Reg "j"))) (RegexConcat (RegexStar (RegexPlus (Str2Reg "g"))) (RegexConcat (RegexStar (RegexUnion (Str2Reg "ee") (Str2Reg "f"))) (RegexConcat (RegexStar (RegexUnion (Str2Reg "ccc") (Str2Reg "dd"))) (RegexConcat (RegexStar (RegexStar (Str2Reg "bb"))) (RegexConcat (RegexUnion (RegexStar (Str2Reg "99")) (RegexStar (Str2Reg "aa"))) (RegexConcat (RegexPlus (RegexPlus (Str2Reg "8"))) (RegexConcat (RegexUnion (RegexUnion (Str2Reg "5") (Str2Reg "6")) (RegexPlus (Str2Reg "77"))) (RegexConcat (RegexStar (RegexStar (Str2Reg "4"))) (RegexConcat (RegexStar (RegexStar (Str2Reg "33"))) (RegexUnion (RegexUnion (Str2Reg "00") (Str2Reg "111")) (RegexStar (Str2Reg "222")))))))))))))))))))))))))))))))))))))))))))))))))))))))))))))))))))))))))))))))))))))))))))
(check-sat)